995
945
945
945
945
864
864
934
934
934
934
946
980
1027
1023
974
964
974
974
1064
991
1042
1042
1066
1002
977
975
975
975
915
975
975
975
973
973
973
973
973
909
1024
1034
1030
1010
1010
1010
1010
993
993
1005
1030
1030
1030
1031
953
969
969
1001
982
982
950
950
982
867
867
917
917
917
917
1023
1030
1030
1005
1005
1006
1006
996
931
925
925
931
931
931
963
1001
938
938
970
970
965
876
876
876
876
950
950
950
920
920
965
1034
996
938
1018
1012
974
930
964
964
986
986
986
1009
970
928
928
928
928
928
945
958
964
977
977
977
977
966
966
994
984
984
994
994
923
923
941
992
928
928
928
928
928
892
892
892
784
784
784
784
890
847
883
883
902
902
885
885
885
885
885
863
988
954
954
954
954
1007
1000
1000
836
1017
911
911
799
904
904
904
959
906
953
869
869
869
869
869
869
869
869
869
861
861
847
895
895
895
881
881
881
881
866
974
